25 25
19
3 3   4 17
3 4   7 20
3 5   6 19
6 3   11 13
3 7   6 12
8 3   3 19
9 3   9 10
10 3   15 16
11 3   11 19
3 13  3 6 
14 3   0 3 
3 17  22 3 
18 3   7 22
3 19  0 6 
25 3   0 0 
5 4   7 6 
4 7   14 3 
4 13  18 3 
3 6   8 13
